NAME: rand_0/map9_180
TYPE: TSP
COMMENT: autogenerated using a wonderful map creator
DIMENSION: 210
EDGE_WEIGHT_TYPE: EUC_2D
NODE_COORD_SECTION
1 84.0 22.0
2 9.0 39.0
3 97.0 10.0
4 127.0 73.0
5 95.0 3.0
6 127.0 80.0
7 35.0 122.0
8 8.0 41.0
9 47.0 125.0
10 67.0 16.0
11 127.0 78.0
12 76.0 12.0
13 68.0 2.0
14 5.0 32.0
15 26.0 127.0
16 37.0 123.0
17 125.0 77.0
18 93.0 4.0
19 123.0 69.0
20 50.0 124.0
21 30.0 126.0
22 39.0 124.0
23 80.0 7.0
24 40.0 127.0
25 9.0 41.0
26 45.0 124.0
27 95.0 1.0
28 81.0 11.0
29 79.0 9.0
30 124.0 74.0
31 84.0 1.0
32 37.0 126.0
33 122.0 77.0
34 69.0 10.0
35 36.0 125.0
36 91.0 8.0
37 86.0 14.0
38 51.0 123.0
39 43.0 123.0
40 7.0 43.0
41 68.0 15.0
42 5.0 31.0
43 91.0 3.0
44 88.0 9.0
45 84.0 8.0
46 95.0 9.0
47 78.0 17.0
48 86.0 7.0
49 11.0 36.0
50 76.0 15.0
51 26.0 125.0
52 97.0 5.0
53 83.0 16.0
54 120.0 72.0
55 41.0 126.0
56 93.0 3.0
57 27.0 125.0
58 6.0 40.0
59 67.0 4.0
60 9.0 36.0
61 77.0 124.0
62 27.0 114.0
63 50.0 61.0
64 52.0 58.0
65 101.0 106.0
66 63.0 98.0
67 122.0 58.0
68 86.0 38.0
69 75.0 72.0
70 34.0 101.0
71 83.0 85.0
72 111.0 101.0
73 38.0 62.0
74 98.0 12.0
75 6.0 57.0
76 46.0 75.0
77 24.0 72.0
78 31.0 65.0
79 80.0 49.0
80 9.0 99.0
81 89.0 61.0
82 64.0 7.0
83 115.0 89.0
84 105.0 54.0
85 126.0 119.0
86 13.0 99.0
87 127.0 118.0
88 30.0 112.0
89 111.0 39.0
90 20.0 49.0
91 51.0 82.0
92 89.0 45.0
93 21.0 57.0
94 61.0 93.0
95 6.0 13.0
96 25.0 18.0
97 39.0 10.0
98 18.0 21.0
99 39.0 28.0
100 40.0 91.0
101 117.0 39.0
102 83.0 71.0
103 78.0 93.0
104 63.0 56.0
105 60.0 32.0
106 113.0 124.0
107 12.0 47.0
108 61.0 31.0
109 79.0 30.0
110 117.0 14.0
111 53.0 20.0
112 94.0 55.0
113 30.0 61.0
114 84.0 29.0
115 101.0 112.0
116 51.0 4.0
117 29.0 38.0
118 9.0 124.0
119 67.0 95.0
120 44.0 72.0
121 50.0 97.0
122 10.0 24.0
123 26.0 20.0
124 50.0 106.0
125 101.0 87.0
126 96.0 103.0
127 59.0 118.0
128 57.0 29.0
129 82.0 28.0
130 56.0 18.0
131 116.0 124.0
132 28.0 11.0
133 82.0 46.0
134 38.0 43.0
135 40.0 40.0
136 86.0 37.0
137 60.0 18.0
138 97.0 46.0
139 52.0 23.0
140 116.0 26.0
141 7.0 9.0
142 62.0 18.0
143 102.0 54.0
144 44.0 101.0
145 39.0 25.0
146 5.0 57.0
147 111.0 11.0
148 102.0 127.0
149 32.0 105.0
150 2.0 113.0
151 103.0 46.0
152 4.0 77.0
153 68.0 122.0
154 107.0 16.0
155 97.0 48.0
156 78.0 44.0
157 26.0 6.0
158 41.0 89.0
159 124.0 41.0
160 34.0 105.0
161 78.0 53.0
162 105.0 37.0
163 3.0 117.0
164 127.0 119.0
165 58.0 126.0
166 46.0 106.0
167 89.0 19.0
168 112.0 115.0
169 14.0 89.0
170 72.0 115.0
171 124.0 98.0
172 45.0 43.0
173 46.0 8.0
174 125.0 97.0
175 62.0 4.0
176 37.0 39.0
177 118.0 36.0
178 12.0 59.0
179 111.0 116.0
180 51.0 95.0
181 103.0 23.0
182 29.0 19.0
183 3.0 18.0
184 110.0 19.0
185 56.0 27.0
186 116.0 87.0
187 90.0 68.0
188 87.0 115.0
189 65.0 87.0
190 9.0 107.0
191 15.0 86.0
192 52.0 50.0
193 72.0 83.0
194 113.0 100.0
195 108.0 67.0
196 61.0 80.0
197 113.0 63.0
198 82.0 112.0
199 17.0 22.0
200 122.0 123.0
201 56.0 102.0
202 100.0 56.0
203 22.0 118.0
204 32.0 31.0
205 44.0 39.0
206 104.0 90.0
207 113.0 56.0
208 102.0 19.0
209 88.0 75.0
210 76.0 73.0
211 99.0 20.0
212 125.0 39.0
213 29.0 62.0
214 39.0 8.0
215 35.0 84.0
216 96.0 100.0
217 4.0 60.0
218 13.0 38.0
219 89.0 73.0
220 82.0 98.0
221 70.0 78.0
222 87.0 94.0
223 61.0 75.0
224 45.0 97.0
225 86.0 107.0
226 3.0 100.0
227 92.0 102.0
228 57.0 89.0
229 42.0 37.0
230 27.0 112.0
231 49.0 94.0
232 10.0 105.0
233 30.0 117.0
234 1.0 111.0
235 16.0 54.0
236 30.0 80.0
237 100.0 99.0
238 114.0 6.0
239 63.0 123.0
240 20.0 127.0
START_DEPOT_SECTION
1
2
3
4
5
6
7
8
9
10
11
12
13
14
15
16
17
18
19
20
21
22
23
24
25
26
27
28
29
30
-1
END_DEPOT_SECTION
31
32
33
34
35
36
37
38
39
40
41
42
43
44
45
46
47
48
49
50
51
52
53
54
55
56
57
58
59
60
-1
EOF
